NAME : mEgtspf
TYPE : ATSP
DIMENSION : 9
EDGE_WEIGHT_TYPE : EXPLICIT
EDGE_WEIGHT_FORMAT : FULL_MATRIX
EDGE_WEIGHT_SECTION
99999 0 60 61 82 114 144 0 0 
40 99999 40 41 62 94 124 0 0 
64 0 99999 1 22 54 84 0 0 
65 0 5 99999 21 53 83 0 0 
84 0 24 23 99999 38 68 0 0 
118 0 58 57 40 99999 48 0 0 
148 0 88 87 70 48 99999 0 0 
23 0 41 42 63 95 125 99999 0 
5 0 63 64 85 117 147 0 99999 
EOF
